g9 4 1 0 34 20170614 0 4 0 240	# problem gridnetg
 44 34 1 0 34	# vars, constraints, objectives, ranges, eqns
 0 1	# nonlinear constraints, objectives
 0 0	# network constraints: nonlinear, linear
 0 44 0	# nonlinear vars in constraints, objectives, both
 0 0 0 1	# linear network variables; functions; arith, flags
 0 0 0 0 0	# discrete variables: binary, integer, nonlinear (b,c,o)
 86 44	# nonzeros in Jacobian, gradients
 0 0	# max name lengths: constraints, variables
 0 0 0 0 0	# common exprs: b,c,o,c1,o1
b
2 0.1
2 0.1
2 0.1
3
2 0.1
2 0.1
3
2 0.1
3
2 0.1
2 0.1
3
3
3
3
3
2 0.1
3
2 0.1
3
3
3
3
3
3
2 0.1
3
2 0.1
3
3
3
3
3
2 0.1
0 4 5
3
3
3
3
3
2 0.1
2 0.1
2 0.1
2 0
r
4 10
4 0
4 0
4 0
4 0
4 0
4 0
4 0
4 0
4 0
4 0
4 0
4 0
4 0
4 0
4 0
4 0
4 0
4 0
4 0
4 0
4 0
4 0
4 0
4 0
4 0
4 0
4 0
4 0
4 -5
4 0
4 0
4 0
4 -5
C0
n0
C1
n0
C2
n0
C3
n0
C4
n0
C5
n0
C6
n0
C7
n0
C8
n0
C9
n0
C10
n0
C11
n0
C12
n0
C13
n0
C14
n0
C15
n0
C16
n0
C17
n0
C18
n0
C19
n0
C20
n0
C21
n0
C22
n0
C23
n0
C24
n0
C25
n0
C26
n0
C27
n0
C28
n0
C29
n0
C30
n0
C31
n0
C32
n0
C33
n0
O0 0
o54
103
o2
o2
n0.01
v0
v0
o2
o2
n0.01
v4
v4
o2
o2
n0.01
v7
v7
o2
o2
n0.01
v9
v9
o2
o2
n0.01
v1
v1
o2
o2
n0.01
v25
v25
o2
o2
n0.01
v18
v18
o2
o2
n0.01
v34
v34
o2
o2
n0.01
v40
v40
o2
o2
n0.01
v42
v42
o2
o2
n0.01
v3
v3
o2
o2
n0.01
v17
v17
o2
o2
n0.01
v13
v13
o2
o2
n0.01
v11
v11
o2
o2
n0.01
v19
v19
o2
o2
n0.01
v20
v20
o2
o2
n0.01
v21
v21
o2
o2
n0.01
v12
v12
o2
o2
n0.01
v28
v28
o2
o2
n0.01
v22
v22
o2
o2
n0.01
v37
v37
o2
o2
n0.01
v15
v15
o2
o2
n0.01
v23
v23
o2
o2
n0.01
v2
v2
o2
o2
n0.01
v41
v41
o2
o2
n0.01
v10
v10
o2
o2
n0.01
v16
v16
o2
o2
n1.0000000000119083
v6
v6
o2
o2
n1.0000000000119083
v8
v8
o2
o2
n1.0000000000119083
v26
v26
o2
o2
n1.0000000000119083
v14
v14
o2
o2
n1.0000000000119083
v35
v35
o2
o2
n1.0000000000119083
v24
v24
o2
o2
n1.0000000000119083
v29
v29
o2
o2
n1.0000000000119083
v36
v36
o2
o2
n1.0000000000119083
v31
v31
o2
o2
n1.0000000000119083
v32
v32
o2
o2
n1.0000000000119083
v30
v30
o2
o2
n1.0000000000119083
v38
v38
o2
o2
n1.0000000000119083
v39
v39
o2
o2
n1.0000000000119083
v5
v5
o2
o2
n1.0000000000119083
v27
v27
o2
o2
n1.0000000000119083
v33
v33
o2
n0.01
o39
o54
3
n1
o2
o2
n2
v0
o1
v0
v43
o2
v43
v43
o2
n0.01
o39
o54
3
n1
o2
o2
n2
v1
o1
v1
v43
o2
v43
v43
o2
n0.01
o39
o54
3
n1
o2
o2
n2
v2
o1
v2
v43
o2
v43
v43
o2
n0.01
o39
o54
3
n1
o2
o2
n2
v3
o1
v3
v43
o2
v43
v43
o2
n0.01
o39
o54
3
n1
o2
o2
n2
v4
o1
v4
v43
o2
v43
v43
o2
n0.01
o39
o0
n1
o2
v43
v43
o2
n0.01
o39
o54
3
n1
o2
o2
n2
v5
o1
v5
v43
o2
v43
v43
o2
n0.01
o39
o54
3
n1
o2
o2
n2
v6
o1
v6
v43
o2
v43
v43
o2
n0.01
o39
o54
3
n1
o2
o2
n2
v7
o1
v7
v43
o2
v43
v43
o2
n0.01
o39
o54
3
n1
o2
o2
n2
v8
o1
v8
v43
o2
v43
v43
o2
n0.01
o39
o54
3
n1
o2
o2
n2
v9
o1
v9
v43
o2
v43
v43
o2
n0.01
o39
o0
n1
o2
v43
v43
o2
n0.01
o39
o54
3
n1
o2
o2
n2
v10
o1
v10
v43
o2
v43
v43
o2
n0.01
o39
o54
3
n1
o2
o2
n2
v11
o1
v11
v43
o2
v43
v43
o2
n0.01
o39
o0
n1
o2
v43
v43
o2
n0.01
o39
o54
3
n1
o2
o2
n2
v12
o1
v12
v43
o2
v43
v43
o2
n0.01
o39
o54
3
n1
o2
o2
n2
v13
o1
v13
v43
o2
v43
v43
o2
n0.01
o39
o0
n1
o2
v43
v43
o2
n0.01
o39
o54
3
n1
o2
o2
n2
v14
o1
v14
v43
o2
v43
v43
o2
n0.01
o39
o54
3
n1
o2
o2
n2
v15
o1
v15
v43
o2
v43
v43
o2
n0.01
o39
o0
n1
o2
v43
v43
o2
n0.01
o39
o54
3
n1
o2
o2
n2
v16
o1
v16
v43
o2
v43
v43
o2
n0.01
o39
o54
3
n1
o2
o2
n2
v17
o1
v17
v43
o2
v43
v43
o2
n0.01
o39
o54
3
n1
o2
o2
n2
v18
o1
v18
v43
o2
v43
v43
o2
n0.01
o39
o54
3
n1
o2
o2
n2
v19
o1
v19
v43
o2
v43
v43
o2
n0.01
o39
o54
3
n1
o2
o2
n2
v20
o1
v20
v43
o2
v43
v43
o2
n0.01
o39
o0
n1
o2
v43
v43
o2
n0.01
o39
o54
3
n1
o2
o2
n2
v21
o1
v21
v43
o2
v43
v43
o2
n0.01
o39
o54
3
n1
o2
o2
n2
v22
o1
v22
v43
o2
v43
v43
o2
n0.01
o39
o0
n1
o2
v43
v43
o2
n0.01
o39
o54
3
n1
o2
o2
n2
v23
o1
v23
v43
o2
v43
v43
o2
n0.01
o39
o54
3
n1
o2
o2
n2
v24
o1
v24
v43
o2
v43
v43
o2
n0.01
o39
o54
3
n1
o2
o2
n2
v25
o1
v25
v43
o2
v43
v43
o2
n0.01
o39
o54
3
n1
o2
o2
n2
v26
o1
v26
v43
o2
v43
v43
o2
n0.01
o39
o54
3
n1
o2
o2
n2
v27
o1
v27
v43
o2
v43
v43
o2
n0.01
o39
o0
n1
o2
v43
v43
o2
n0.01
o39
o54
3
n1
o2
o2
n2
v28
o1
v28
v43
o2
v43
v43
o2
n0.01
o39
o54
3
n1
o2
o2
n2
v29
o1
v29
v43
o2
v43
v43
o2
n0.01
o39
o0
n1
o2
v43
v43
o2
n0.01
o39
o54
3
n1
o2
o2
n2
v30
o1
v30
v43
o2
v43
v43
o2
n0.01
o39
o54
3
n1
o2
o2
n2
v31
o1
v31
v43
o2
v43
v43
o2
n0.01
o39
o0
n1
o2
v43
v43
o2
n0.01
o39
o54
3
n1
o2
o2
n2
v32
o1
v32
v43
o2
v43
v43
o2
n0.01
o39
o54
3
n1
o2
o2
n2
v33
o1
v33
v43
o2
v43
v43
o2
n0.01
o39
o0
n1
o2
v43
v43
o2
n0.01
o39
o54
3
n1
o2
o2
n2
v34
o1
v34
v43
o2
v43
v43
o2
n0.01
o39
o54
3
n1
o2
o2
n2
v35
o1
v35
v43
o2
v43
v43
o2
n0.01
o39
o0
n1
o2
v43
v43
o2
n0.01
o39
o54
3
n1
o2
o2
n2
v36
o1
v36
v43
o2
v43
v43
o2
n0.01
o39
o54
3
n1
o2
o2
n2
v37
o1
v37
v43
o2
v43
v43
o2
n0.01
o39
o0
n1
o2
v43
v43
o2
n0.01
o39
o54
3
n1
o2
o2
n2
v38
o1
v38
v43
o2
v43
v43
o2
n0.01
o39
o54
3
n1
o2
o2
n2
v39
o1
v39
v43
o2
v43
v43
o2
n0.01
o39
o0
n1
o2
v43
v43
o2
n0.01
o39
o54
3
n1
o2
n10
o1
n5
v43
o2
v43
v43
o2
n0.01
o39
o54
3
n1
o2
o2
n2
v40
o1
v40
v43
o2
v43
v43
o2
n0.01
o39
o54
3
n1
o2
o2
n2
v41
o1
v41
v43
o2
v43
v43
o2
n0.01
o39
o54
3
n1
o2
o2
n2
v42
o1
v42
v43
o2
v43
v43
o2
n0.01
o39
o54
3
n1
o2
n10
o1
n5
v43
o2
v43
v43
n25.58333333029771
k43
2
4
6
8
10
12
14
16
18
20
22
24
26
28
30
32
34
36
38
40
42
44
46
48
50
52
54
56
58
60
62
64
66
68
70
72
74
76
78
80
82
84
86
J0 2
0 1
1 1
J1 3
0 -1
2 1
3 1
J2 2
2 -1
4 1
J3 3
4 -1
5 1
6 1
J4 3
5 -1
7 1
8 1
J5 2
7 -1
9 1
J6 2
1 -1
10 1
J7 2
3 -1
11 1
J8 3
11 -1
12 1
13 1
J9 3
6 -1
12 -1
14 1
J10 2
8 -1
15 1
J11 3
9 -1
15 -1
16 1
J12 3
10 -1
17 1
18 1
J13 3
17 -1
19 1
20 1
J14 3
13 -1
19 -1
21 1
J15 2
14 -1
22 1
J16 3
22 -1
23 1
24 1
J17 3
16 -1
23 -1
25 1
J18 3
18 -1
26 1
27 1
J19 3
20 -1
26 -1
28 1
J20 2
21 -1
29 1
J21 3
29 -1
30 1
31 1
J22 3
24 -1
30 -1
32 1
J23 2
25 -1
33 1
J24 2
27 -1
34 1
J25 2
28 -1
35 1
J26 3
35 -1
36 1
37 1
J27 3
31 -1
36 -1
38 1
J28 2
32 -1
39 1
J29 2
33 -1
39 -1
J30 2
34 -1
40 1
J31 2
40 -1
41 1
J32 3
37 -1
41 -1
42 1
J33 2
38 -1
42 -1
G0 44
0 0
1 0
2 0
3 0
4 0
5 0
6 0
7 0
8 0
9 0
10 0
11 0
12 0
13 0
14 0
15 0
16 0
17 0
18 0
19 0
20 0
21 0
22 0
23 0
24 0
25 0
26 0
27 0
28 0
29 0
30 0
31 0
32 0
33 0
34 0
35 0
36 0
37 0
38 0
39 0
40 0
41 0
42 0
43 0
